c Modular CNF with 2 modules
c Generated CNF instance
p cnf 20 320
8 9 6 0
8 9 -6 0
8 -9 6 0
-8 9 6 0
4 8 9 0
4 8 -9 0
4 -8 9 0
-4 8 9 0
9 8 7 0
9 8 -7 0
9 -8 7 0
-9 8 7 0
1 6 2 0
1 6 -2 0
1 -6 2 0
-1 6 2 0
8 9 10 0
8 9 -10 0
8 -9 10 0
-8 9 10 0
9 2 5 0
9 2 -5 0
9 -2 5 0
-9 2 5 0
6 9 1 0
6 9 -1 0
6 -9 1 0
-6 9 1 0
4 9 1 0
4 9 -1 0
4 -9 1 0
-4 9 1 0
6 4 1 0
6 4 -1 0
6 -4 1 0
-6 4 1 0
3 7 6 0
3 7 -6 0
3 -7 6 0
-3 7 6 0
1 9 4 0
1 9 -4 0
1 -9 4 0
-1 9 4 0
7 1 5 0
7 1 -5 0
7 -1 5 0
-7 1 5 0
7 3 5 0
7 3 -5 0
7 -3 5 0
-7 3 5 0
7 10 4 0
7 10 -4 0
7 -10 4 0
-7 10 4 0
4 5 8 0
4 5 -8 0
4 -5 8 0
-4 5 8 0
4 3 9 0
4 3 -9 0
4 -3 9 0
-4 3 9 0
10 5 3 0
10 5 -3 0
10 -5 3 0
-10 5 3 0
1 7 4 0
1 7 -4 0
1 -7 4 0
-1 7 4 0
6 8 10 0
6 8 -10 0
6 -8 10 0
-6 8 10 0
3 9 7 0
3 9 -7 0
3 -9 7 0
-3 9 7 0
7 2 4 0
7 2 -4 0
7 -2 4 0
-7 2 4 0
1 7 3 0
1 7 -3 0
1 -7 3 0
-1 7 3 0
9 5 4 0
9 5 -4 0
9 -5 4 0
-9 5 4 0
2 8 7 0
2 8 -7 0
2 -8 7 0
-2 8 7 0
7 6 10 0
7 6 -10 0
7 -6 10 0
-7 6 10 0
10 3 1 0
10 3 -1 0
10 -3 1 0
-10 3 1 0
9 8 1 0
9 8 -1 0
9 -8 1 0
-9 8 1 0
1 6 3 0
1 6 -3 0
1 -6 3 0
-1 6 3 0
4 7 9 0
4 7 -9 0
4 -7 9 0
-4 7 9 0
8 9 1 0
8 9 -1 0
8 -9 1 0
-8 9 1 0
4 8 6 0
4 8 -6 0
4 -8 6 0
-4 8 6 0
7 10 9 0
7 10 -9 0
7 -10 9 0
-7 10 9 0
3 5 2 0
3 5 -2 0
3 -5 2 0
-3 5 2 0
10 6 9 0
10 6 -9 0
10 -6 9 0
-10 6 9 0
1 10 6 0
1 10 -6 0
1 -10 6 0
-1 10 6 0
1 8 10 0
1 8 -10 0
1 -8 10 0
-1 8 10 0
2 9 3 0
2 9 -3 0
2 -9 3 0
-2 9 3 0
3 7 2 0
3 7 -2 0
3 -7 2 0
-3 7 2 0
5 9 2 0
5 9 -2 0
5 -9 2 0
-5 9 2 0
8 6 5 0
8 6 -5 0
8 -6 5 0
-8 6 5 0
15 11 12 0
15 11 -12 0
15 -11 12 0
-15 11 12 0
17 15 16 0
17 15 -16 0
17 -15 16 0
-17 15 16 0
13 17 14 0
13 17 -14 0
13 -17 14 0
-13 17 14 0
17 15 12 0
17 15 -12 0
17 -15 12 0
-17 15 12 0
19 13 18 0
19 13 -18 0
19 -13 18 0
-19 13 18 0
12 17 11 0
12 17 -11 0
12 -17 11 0
-12 17 11 0
20 16 15 0
20 16 -15 0
20 -16 15 0
-20 16 15 0
14 16 11 0
14 16 -11 0
14 -16 11 0
-14 16 11 0
11 14 18 0
11 14 -18 0
11 -14 18 0
-11 14 18 0
16 14 13 0
16 14 -13 0
16 -14 13 0
-16 14 13 0
13 15 12 0
13 15 -12 0
13 -15 12 0
-13 15 12 0
14 20 19 0
14 20 -19 0
14 -20 19 0
-14 20 19 0
12 16 18 0
12 16 -18 0
12 -16 18 0
-12 16 18 0
11 14 20 0
11 14 -20 0
11 -14 20 0
-11 14 20 0
19 12 17 0
19 12 -17 0
19 -12 17 0
-19 12 17 0
16 11 12 0
16 11 -12 0
16 -11 12 0
-16 11 12 0
13 17 20 0
13 17 -20 0
13 -17 20 0
-13 17 20 0
14 19 20 0
14 19 -20 0
14 -19 20 0
-14 19 20 0
16 17 19 0
16 17 -19 0
16 -17 19 0
-16 17 19 0
16 13 19 0
16 13 -19 0
16 -13 19 0
-16 13 19 0
17 19 11 0
17 19 -11 0
17 -19 11 0
-17 19 11 0
13 11 17 0
13 11 -17 0
13 -11 17 0
-13 11 17 0
20 18 11 0
20 18 -11 0
20 -18 11 0
-20 18 11 0
14 15 16 0
14 15 -16 0
14 -15 16 0
-14 15 16 0
14 16 12 0
14 16 -12 0
14 -16 12 0
-14 16 12 0
14 13 12 0
14 13 -12 0
14 -13 12 0
-14 13 12 0
13 20 11 0
13 20 -11 0
13 -20 11 0
-13 20 11 0
20 17 16 0
20 17 -16 0
20 -17 16 0
-20 17 16 0
17 18 13 0
17 18 -13 0
17 -18 13 0
-17 18 13 0
19 16 15 0
19 16 -15 0
19 -16 15 0
-19 16 15 0
15 19 20 0
15 19 -20 0
15 -19 20 0
-15 19 20 0
18 17 15 0
18 17 -15 0
18 -17 15 0
-18 17 15 0
12 17 16 0
12 17 -16 0
12 -17 16 0
-12 17 16 0
12 19 11 0
12 19 -11 0
12 -19 11 0
-12 19 11 0
16 20 17 0
16 20 -17 0
16 -20 17 0
-16 20 17 0
17 18 20 0
17 18 -20 0
17 -18 20 0
-17 18 20 0
12 18 17 0
12 18 -17 0
12 -18 17 0
-12 18 17 0
18 17 20 0
18 17 -20 0
18 -17 20 0
-18 17 20 0
11 18 15 0
11 18 -15 0
11 -18 15 0
-11 18 15 0
20 12 13 0
20 12 -13 0
20 -12 13 0
-20 12 13 0
